nAceiteVegetal=2;
nAceiteNoVegetal=3;
MesesPerdida=3;
nMeses = 6;
VALOR = 180;
dureza = [9.1, 6.4, 2.3, 4.5, 5.3];
precios = [| 125, 135, 145, 125, 130
           | 145, 145, 125, 105, 130
           | 125, 155, 145, 115, 110
           | 135, 125, 135, 135, 140
           | 115, 135, 165, 125, 120
           | 105, 115, 155, 95, 150 |];
MAXV = 230;
MAXN = 280;
MCAP = 1150;
CA = 8;
MinD = 3.3;
MaxD = 6.3; 
MinB = 115000;
inicial = [575, 575, 575, 575, 575];
PV = 13;
K = 8;
T = 65;
